\ENCODING=ISO-8859-1
\Problem name: Configuration1

Minimize
 obj1: 11 T(1)(1) + 7 T(1)(2) + 10 T(1)(3) + 17 T(1)(4) + 10 T(1)(5)
       + 13 T(2)(1) + 21 T(2)(2) + 7 T(2)(3) + 11 T(2)(4) + 13 T(2)(5)
       + 13 T(3)(1) + 13 T(3)(2) + 15 T(3)(3) + 13 T(3)(4) + 14 T(3)(5)
       + 18 T(4)(1) + 10 T(4)(2) + 13 T(4)(3) + 16 T(4)(4) + 14 T(4)(5)
       + 12 T(5)(1) + 8 T(5)(2) + 16 T(5)(3) + 19 T(5)(4) + 10 T(5)(5)
Subject To
 c1:  T(1)(1) + T(1)(2) + T(1)(3) + T(1)(4) + T(1)(5)  = 1
 c2:  T(2)(1) + T(2)(2) + T(2)(3) + T(2)(4) + T(2)(5)  = 1
 c3:  T(3)(1) + T(3)(2) + T(3)(3) + T(3)(4) + T(3)(5)  = 1
 c4:  T(4)(1) + T(4)(2) + T(4)(3) + T(4)(4) + T(4)(5)  = 1
 c5:  T(5)(1) + T(5)(2) + T(5)(3) + T(5)(4) + T(5)(5)  = 1
 c6:  T(1)(1) + T(2)(1) + T(3)(1) + T(4)(1) + T(5)(1)  = 1
 c7:  T(1)(2) + T(2)(2) + T(3)(2) + T(4)(2) + T(5)(2)  = 1
 c8:  T(1)(3) + T(2)(3) + T(3)(3) + T(4)(3) + T(5)(3)  = 1
 c9:  T(1)(4) + T(2)(4) + T(3)(4) + T(4)(4) + T(5)(4)  = 1
 c10: T(1)(5) + T(2)(5) + T(3)(5) + T(4)(5) + T(5)(5)  = 1
Bounds
 0 <= T(1)(1) <= 1
 0 <= T(1)(2) <= 1
 0 <= T(1)(3) <= 1
 0 <= T(1)(4) <= 1
 0 <= T(1)(5) <= 1
 0 <= T(2)(1) <= 1
 0 <= T(2)(2) <= 1
 0 <= T(2)(3) <= 1
 0 <= T(2)(4) <= 1
 0 <= T(2)(5) <= 1
 0 <= T(3)(1) <= 1
 0 <= T(3)(2) <= 1
 0 <= T(3)(3) <= 1
 0 <= T(3)(4) <= 1
 0 <= T(3)(5) <= 1
 0 <= T(4)(1) <= 1
 0 <= T(4)(2) <= 1
 0 <= T(4)(3) <= 1
 0 <= T(4)(4) <= 1
 0 <= T(4)(5) <= 1
 0 <= T(5)(1) <= 1
 0 <= T(5)(2) <= 1
 0 <= T(5)(3) <= 1
 0 <= T(5)(4) <= 1
 0 <= T(5)(5) <= 1
Binaries
 T(1)(1)  T(1)(2)  T(1)(3)  T(1)(4)  T(1)(5)  T(2)(1)  T(2)(2)  T(2)(3) 
 T(2)(4)  T(2)(5)  T(3)(1)  T(3)(2)  T(3)(3)  T(3)(4)  T(3)(5)  T(4)(1) 
 T(4)(2)  T(4)(3)  T(4)(4)  T(4)(5)  T(5)(1)  T(5)(2)  T(5)(3)  T(5)(4) 
 T(5)(5) 
End
